0 11 67 70 69 25 26 21 24 23 22 12 4 5 6 7 58 59 57 60 2 13 14 44 41 42 43 27 29 30 32 31 54 55 3 56 66 73 72 71 74 28 38 39 15 16 17 18 19 20 36 37 63 64 61 62 46 50 47 51 53 49 52 48 40 33 34 35 1 45 65 68 10 9 8 0 